
Gurobi 10.0.1 (linux64) logging started Sun Nov 26 15:37:24 2023

Set parameter LogFile to value "ArtificialInstance/ExperimentV2/S4T3K1/AdRo/gurobi1.txt"
Gurobi Optimizer version 10.0.1 build v10.0.1rc0 (linux64)

CPU model: AMD EPYC 7H12 64-Core Processor, instruction set [SSE2|AVX|AVX2]
Thread count: 128 physical cores, 128 logical processors, using up to 32 threads

Academic license 656792 - for non-commercial use only - registered to b.___@student.vu.nl
Optimize a model with 3739 rows, 3606 columns and 14229 nonzeros
Model fingerprint: 0xdb355acf
Variable types: 1 continuous, 3605 integer (3605 binary)
Coefficient statistics:
  Matrix range     [1e+00, 4e+01]
  Objective range  [1e+00, 2e+01]
  Bounds range     [1e+00, 1e+00]
  RHS range        [1e+00, 1e+00]
Presolve removed 395 rows and 375 columns
Presolve time: 0.05s
Presolved: 3344 rows, 3231 columns, 13176 nonzeros
Variable types: 1 continuous, 3230 integer (3230 binary)
Found heuristic solution: objective 230.9992018

Root relaxation: objective 4.337197e+01, 2682 iterations, 0.14 seconds (0.12 work units)

    Nodes    |    Current Node    |     Objective Bounds      |     Work
 Expl Unexpl |  Obj  Depth IntInf | Incumbent    BestBd   Gap | It/Node Time

     0     0   43.37197    0  318  230.99920   43.37197  81.2%     -    0s
H    0     0                      87.6915358   43.37197  50.5%     -    0s
H    0     0                      77.9872933   43.37197  44.4%     -    0s
H    0     0                      52.5877022   44.84429  14.7%     -    0s
     0     0   44.89367    0  536   52.58770   44.89367  14.6%     -    0s
     0     0   46.37100    0  445   52.58770   46.37100  11.8%     -    0s
H    0     0                      51.4746057   46.37100  9.91%     -    0s
     0     0   46.98178    0  424   51.47461   46.98178  8.73%     -    0s
     0     0   46.98178    0  426   51.47461   46.98178  8.73%     -    0s
     0     0   47.85789    0  585   51.47461   47.85789  7.03%     -    0s
     0     0   48.21905    0  575   51.47461   48.21905  6.32%     -    0s
     0     0   49.26975    0  516   51.47461   49.26975  4.28%     -    1s
     0     0   49.43682    0  478   51.47461   49.43682  3.96%     -    1s
     0     0   49.43682    0  312   51.47461   49.43682  3.96%     -    1s
     0     0   49.43682    0  507   51.47461   49.43682  3.96%     -    1s
     0     0   49.43682    0  537   51.47461   49.43682  3.96%     -    1s
     0     0   49.43682    0  547   51.47461   49.43682  3.96%     -    1s
     0     0   49.43682    0  548   51.47461   49.43682  3.96%     -    1s
     0     0   49.43682    0  566   51.47461   49.43682  3.96%     -    1s
H    0     0                      51.4617219   49.43682  3.93%     -    1s
     0     0   49.43682    0  560   51.46172   49.43682  3.93%     -    1s
     0     0   49.64613    0  612   51.46172   49.64613  3.53%     -    2s
     0     0   50.33857    0  638   51.46172   50.33857  2.18%     -    2s
     0     0   51.46172    0  652   51.46172   51.46172  0.00%     -    2s

Cutting planes:
  Gomory: 6
  Clique: 1
  Zero half: 73
  RLT: 13

Explored 1 nodes (15796 simplex iterations) in 2.20 seconds (1.44 work units)
Thread count was 32 (of 128 available processors)

Solution count 6: 51.4617 51.4746 52.5877 ... 230.999

Optimal solution found (tolerance 1.00e-04)
Best objective 5.146172189898e+01, best bound 5.146172189898e+01, gap 0.0000%
